100 10
213 622
395 603
611 607
533 359
581 685
191 650
585 217
601 681
314 414
654 413
170 691
363 317
475 597
482 436
208 157
805 575
514 215
659 683
444 143
477 885
525 524
743 389
193 179
611 554
125 258
508 19
577 705
338 581
345 297
518 338
372 237
52 701
527 638
688 290
149 743
273 694
890 650
802 882
334 589
767 787
530 805
651 743
633 705
489 469
281 206
730 457
306 460
614 527
425 540
167 377
556 537
395 283
560 605
472 711
504 349
388 115
755 517
495 90
728 332
259 310
444 587
519 77
554 635
870 817
220 193
594 713
472 512
480 291
68 200
329 354
343 866
717 696
474 558
491 482
621 887
738 534
345 328
427 350
521 105
707 578
814 457
209 367
72 114
813 473
723 747
473 701
260 336
652 672
302 443
622 535
457 702
685 197
230 140
389 292
85 213
127 734
357 549
291 453
266 912
397 156
